


































































































41 10 8 45 36 
5 13 22 40 0 
15 74 29 2 63 23 
57 28 44 17 53 19 
46 12 38 55 34 
7 52 66 69 73 
25 11 56 30 32 
6 20 62 1 59 
60 39 64 16 76 
49 61 51 31 18 50 
48 3 42 9 4 
68 58 71 70 
54 37 35 67 75 
27 21 72 14 
43 33 47 26 65 
24 
